StudentsNr = 10;
InstructorsNr = 84;
DaysNr = 1;
SlotsPerDay = 10;
AvailabilitySlotsLenght = 1;
RoomNr = 1;
ProgrammNr = 1;
DegreeNr = 1;
RolesNr = 1;
CoursesNr = 6;
InstructorsProgramm = [{1}, {1}, {1}, {1}, {1}, {1}, {1}, {1}, {1}, {1}, {1}, {1}, {1}, {1}, {1}, {1}, {1}, {1}, {1}, {1}, {1}, {1}, {1}, {1}, {1}, {1}, {1}, {1}, {1}, {1}, {1}, {1}, {1}, {1}, {1}, {1}, {1}, {1}, {1}, {1}, {1}, {1}, {1}, {1}, {1}, {1}, {1}, {1}, {1}, {1}, {1}, {1}, {1}, {1}, {1}, {1}, {1}, {1}, {1}, {1}, {1}, {1}, {1}, {1}, {1}, {1}, {1}, {1}, {1}, {1}, {1}, {1}, {1}, {1}, {1}, {1}, {1}, {1}, {1}, {1}, {1}, {1}, {1}, {1}];
InstructorRolesPerProgramm = [|{1, 4, 5, 7, 9, 10, 14, 15, 16, 21, 23, 32, 33, 35, 37, 39, 40, 41, 44, 45, 46, 48, 52, 54, 58, 59, 60, 63, 64, 66, 75, 76, 82, 83}|];
InstructorsAvailability = [|1, 0, 1, 1, 1, 1, 1, 1, 1, 1, |1, 1, 1, 1, 1, 1, 1, 1, 0, 1, |0, 1, 1, 0, 0, 1, 1, 1, 1, 1, |1, 1, 1, 1, 1, 1, 1, 1, 0, 0, |1, 1, 1, 1, 1, 1, 1, 1, 1, 1, |0, 1, 1, 1, 1, 1, 1, 1, 1, 1, |1, 1, 1, 1, 1, 1, 1, 1, 1, 0, |1, 1, 1, 1, 1, 1, 1, 1, 1, 1, |1, 1, 1, 1, 1, 1, 1, 0, 1, 1, |0, 0, 0, 1, 0, 0, 1, 1, 1, 1, |1, 1, 1, 1, 1, 1, 1, 1, 0, 1, |1, 1, 0, 0, 1, 1, 0, 1, 1, 1, |0, 0, 1, 1, 0, 0, 1, 1, 0, 0, |1, 1, 1, 1, 1, 1, 0, 0, 0, 1, |0, 0, 1, 1, 0, 1, 1, 1, 1, 1, |1, 1, 1, 0, 1, 1, 1, 0, 1, 1, |1, 0, 0, 1, 1, 1, 1, 0, 0, 0, |0, 0, 1, 0, 1, 0, 0, 1, 1, 1, |1, 0, 0, 1, 1, 1, 1, 1, 1, 1, |1, 1, 0, 1, 1, 1, 1, 1, 1, 1, |1, 1, 1, 1, 0, 1, 1, 1, 1, 1, |1, 0, 1, 1, 0, 0, 0, 1, 0, 0, |1, 1, 1, 1, 1, 1, 1, 0, 1, 1, |0, 1, 1, 1, 1, 1, 1, 1, 1, 1, |0, 1, 1, 1, 1, 1, 1, 1, 1, 1, |1, 1, 1, 1, 1, 1, 0, 0, 1, 1, |0, 1, 1, 1, 1, 1, 1, 1, 1, 1, |0, 0, 1, 1, 0, 1, 0, 1, 1, 1, |0, 1, 1, 1, 1, 1, 1, 0, 1, 1, |0, 1, 1, 1, 1, 1, 1, 1, 1, 1, |1, 0, 1, 0, 1, 1, 0, 1, 1, 1, |0, 1, 0, 0, 0, 1, 0, 1, 0, 1, |0, 1, 0, 0, 0, 1, 1, 1, 0, 1, |1, 1, 1, 1, 1, 1, 1, 1, 1, 1, |0, 0, 1, 1, 1, 1, 1, 1, 1, 1, |0, 1, 1, 1, 1, 1, 1, 0, 1, 1, |0, 1, 1, 1, 1, 1, 0, 1, 0, 1, |1, 1, 1, 1, 0, 0, 1, 0, 0, 1, |0, 0, 1, 1, 1, 1, 1, 1, 1, 1, |1, 1, 1, 1, 1, 0, 1, 0, 0, 1, |1, 1, 0, 1, 1, 1, 1, 0, 1, 1, |0, 0, 0, 1, 0, 0, 1, 1, 0, 0, |0, 1, 1, 0, 0, 0, 1, 0, 1, 1, |1, 1, 1, 1, 1, 1, 1, 1, 1, 1, |1, 0, 1, 1, 0, 0, 0, 0, 0, 1, |0, 1, 1, 1, 1, 1, 1, 1, 1, 1, |0, 1, 1, 1, 1, 1, 0, 0, 0, 1, |1, 0, 0, 0, 0, 1, 1, 1, 1, 1, |1, 1, 0, 0, 0, 0, 1, 0, 0, 0, |0, 0, 0, 1, 1, 1, 1, 1, 1, 0, |1, 1, 1, 1, 1, 1, 1, 1, 1, 1, |1, 1, 1, 1, 1, 1, 1, 1, 1, 1, |1, 0, 0, 0, 1, 1, 1, 1, 1, 1, |1, 1, 1, 1, 1, 1, 1, 1, 1, 1, |0, 1, 1, 1, 1, 1, 1, 1, 1, 1, |0, 0, 1, 1, 1, 1, 1, 0, 1, 1, |0, 1, 1, 1, 1, 1, 1, 1, 0, 1, |0, 0, 1, 1, 1, 1, 1, 1, 1, 0, |1, 1, 1, 1, 1, 1, 1, 0, 0, 1, |0, 1, 0, 0, 0, 1, 1, 1, 1, 1, |1, 1, 0, 0, 1, 1, 1, 0, 1, 1, |0, 0, 0, 1, 1, 0, 0, 0, 1, 1, |0, 1, 1, 1, 1, 1, 1, 0, 1, 1, |0, 1, 1, 1, 1, 1, 1, 1, 1, 1, |0, 1, 1, 1, 1, 0, 1, 1, 1, 1, |1, 0, 1, 1, 1, 1, 1, 1, 1, 1, |0, 1, 0, 1, 0, 0, 1, 1, 1, 0, |0, 0, 0, 1, 1, 1, 0, 0, 1, 1, |0, 1, 1, 1, 1, 1, 1, 1, 1, 1, |0, 1, 1, 1, 1, 1, 1, 1, 1, 1, |0, 1, 1, 1, 1, 1, 1, 1, 0, 1, |1, 0, 1, 0, 0, 0, 0, 0, 0, 1, |0, 1, 1, 1, 1, 0, 0, 0, 1, 1, |1, 1, 1, 1, 1, 1, 1, 1, 1, 1, |0, 0, 1, 1, 1, 1, 1, 1, 1, 1, |0, 1, 0, 0, 0, 1, 1, 1, 1, 1, |1, 1, 1, 1, 1, 1, 1, 1, 1, 1, |0, 1, 0, 1, 1, 0, 0, 0, 1, 1, |0, 1, 0, 0, 0, 0, 0, 1, 1, 0, |0, 0, 0, 0, 0, 1, 1, 1, 1, 1, |1, 1, 1, 1, 1, 0, 1, 1, 0, 1, |0, 0, 1, 1, 1, 0, 1, 1, 1, 1, |0, 0, 1, 1, 1, 1, 1, 1, 1, 1, |0, 0, 1, 1, 1, 1, 1, 1, 1, 1|];
StudentsProgramm = [1, 1, 1, 1, 1, 1, 1, 1, 1, 1];
StudentsDegree = [1, 1, 1, 1, 1, 1, 1, 1, 1, 1];
StudentsSupervisorId = [7, 30, 21, 51, 39, 5, 64, 42, 5, 77];
StudentsCourseIds = [{1, 4}, {1, 3}, {3, 5}, {1, 6}, {2, 5}, {2, 6}, {5, 6}, {2, 5}, {3, 4}, {4, 6}];
StudentsAvailability = [|0, 1, 1, 1, 1, 1, 1, 1, 1, 1, |0, 1, 1, 1, 1, 0, 0, 1, 1, 1, |1, 1, 1, 0, 1, 1, 1, 1, 1, 1, |1, 1, 1, 1, 1, 1, 1, 1, 1, 1, |0, 1, 1, 1, 1, 1, 1, 1, 1, 1, |0, 0, 0, 0, 1, 1, 0, 1, 1, 1, |1, 1, 1, 1, 1, 1, 1, 0, 0, 1, |0, 1, 1, 1, 1, 1, 1, 1, 1, 1, |0, 1, 1, 1, 1, 1, 1, 1, 1, 1, |0, 1, 1, 0, 1, 1, 1, 1, 1, 1|];
TheoryticalMinCard = [0, 0, 0, 0, 0, 0, 0, 0, 0, 0];
CoursesInstructorIds = [{2, 3, 4, 6, 9, 10, 11, 14, 16, 17, 18, 19, 22, 25, 26, 29, 30, 34, 36, 38, 42, 43, 47, 50, 51, 52, 53, 59, 60, 64, 65, 66, 68, 76, 77, 78, 81, 83}, {4, 7, 11, 21, 23, 26, 29, 31, 33, 35, 39, 40, 42, 43, 46, 51, 52, 55, 56, 61, 63, 64, 65, 66, 73, 74, 78, 81}, {2, 4, 5, 7, 10, 20, 30, 34, 41, 43, 48, 57, 65, 69, 79, 82}, {1, 2, 3, 4, 7, 8, 11, 14, 15, 16, 17, 18, 19, 22, 23, 24, 26, 28, 29, 30, 33, 34, 37, 41, 42, 45, 46, 48, 49, 51, 53, 55, 56, 57, 58, 59, 60, 66, 68, 69, 70, 73, 75, 77, 84}, {3, 4, 12, 15, 20, 23, 24, 25, 26, 28, 37, 38, 43, 44, 45, 46, 47, 48, 50, 54, 55, 58, 59, 63, 74, 77, 82}, {3, 4, 5, 8, 9, 10, 13, 14, 18, 21, 23, 27, 30, 31, 34, 36, 37, 38, 39, 41, 42, 43, 44, 45, 46, 50, 54, 56, 57, 59, 60, 62, 64, 66, 67, 69, 71, 73, 75, 79, 80, 84}];
RolesDemands = [1];
RolesContinuity = [];
ExamLen = [2, 2, 2, 2, 2, 2, 2, 2, 2, 2];
LunchTsMinLen = 0;
LunchStarts = [5..6];
SupervisorAvailable = 0;
OptimalLunchLenght = [1, 1];
OptimalStartTs = [2, 1];
OptimalFinishTs = [2, 9];
MinimizeRooms = 0;
RolesSoftContinuity = [|1|1|];
SameDegreeInRoom = 0;
Mergeability = 1;
